BAYES
144
2 2 2 2 2 2 2 2 2 2 2 2 2 2 2 2 2 2 2 2 2 2 2 2 2 2 2 2 2 2 2 2 2 2 2 2 2 2 2 2 2 2 2 2 2 2 2 2 2 2 2 2 2 2 2 2 2 2 2 2 2 2 2 2 2 2 2 2 2 2 2 2 2 2 2 2 2 2 2 2 2 2 2 2 2 2 2 2 2 2 2 2 2 2 2 2 2 2 2 2 2 2 2 2 2 2 2 2 2 2 2 2 2 2 2 2 2 2 2 2 2 2 2 2 2 2 2 2 2 2 2 2 2 2 2 2 2 2 2 2 2 2 2 2
144
3 12 1 0
3 13 2 1
3 14 3 2
3 15 4 3
3 16 5 4
3 17 6 5
3 18 7 6
3 19 8 7
3 20 9 8
3 21 10 9
3 22 11 10
2 23 11
3 24 13 12
3 25 14 13
3 26 15 14
3 27 16 15
3 28 17 16
3 29 18 17
3 30 19 18
3 31 20 19
3 32 21 20
3 33 22 21
3 34 23 22
2 35 23
3 36 25 24
3 37 26 25
3 38 27 26
3 39 28 27
3 40 29 28
3 41 30 29
3 42 31 30
3 43 32 31
3 44 33 32
3 45 34 33
3 46 35 34
2 47 35
3 48 37 36
3 49 38 37
3 50 39 38
3 51 40 39
3 52 41 40
3 53 42 41
3 54 43 42
3 55 44 43
3 56 45 44
3 57 46 45
3 58 47 46
2 59 47
3 60 49 48
3 61 50 49
3 62 51 50
3 63 52 51
3 64 53 52
3 65 54 53
3 66 55 54
3 67 56 55
3 68 57 56
3 69 58 57
3 70 59 58
2 71 59
3 72 61 60
3 73 62 61
3 74 63 62
3 75 64 63
3 76 65 64
3 77 66 65
3 78 67 66
3 79 68 67
3 80 69 68
3 81 70 69
3 82 71 70
2 83 71
3 84 73 72
3 85 74 73
3 86 75 74
3 87 76 75
3 88 77 76
3 89 78 77
3 90 79 78
3 91 80 79
3 92 81 80
3 93 82 81
3 94 83 82
2 95 83
3 96 85 84
3 97 86 85
3 98 87 86
3 99 88 87
3 100 89 88
3 101 90 89
3 102 91 90
3 103 92 91
3 104 93 92
3 105 94 93
3 106 95 94
2 107 95
3 108 97 96
3 109 98 97
3 110 99 98
3 111 100 99
3 112 101 100
3 113 102 101
3 114 103 102
3 115 104 103
3 116 105 104
3 117 106 105
3 118 107 106
2 119 107
3 120 109 108
3 121 110 109
3 122 111 110
3 123 112 111
3 124 113 112
3 125 114 113
3 126 115 114
3 127 116 115
3 128 117 116
3 129 118 117
3 130 119 118
2 131 119
3 132 121 120
3 133 122 121
3 134 123 122
3 135 124 123
3 136 125 124
3 137 126 125
3 138 127 126
3 139 128 127
3 140 129 128
3 141 130 129
3 142 131 130
2 143 131
2 133 132
2 134 133
2 135 134
2 136 135
2 137 136
2 138 137
2 139 138
2 140 139
2 141 140
2 142 141
2 143 142
1  143
8
0.08686522343029753 0.9131347765697024 0.09800605410029789 0.901993945899702 0.5143531413637854 0.4856468586362146 0.2200100196756567 0.7799899803243433
8
1 0 0 1 0 1 1 0
8
0 1 1 0 1 0 1 0
8
1 0 1 0 0 1 0 1
8
1 0 1 0 1 0 0 1
8
0.5724648382756162 0.4275351617243838 0.2250675971263302 0.7749324028736698 0.6230173144736839 0.3769826855263161 0.4546788203524478 0.5453211796475522
8
0 1 0 1 1 0 0 1
8
0 1 1 0 1 0 0 1
8
1 0 0 1 1 0 0 1
8
0 1 1 0 0 1 1 0
8
0 1 0 1 1 0 1 0
4
0 1 0 1
8
0.27042753946931486 0.7295724605306851 0.3374997373790835 0.6625002626209164 0.3806914838825581 0.6193085161174418 0.2128749147243216 0.7871250852756784
8
0 1 1 0 0 1 0 1
8
1 0 1 0 1 0 1 0
8
0 1 0 1 1 0 0 1
8
0 1 1 0 0 1 0 1
8
0 1 0 1 0 1 1 0
8
0 1 1 0 0 1 0 1
8
0 1 1 0 0 1 0 1
8
0.5775907749703696 0.4224092250296304 0.5005676189549381 0.4994323810450618 0.16925408884684254 0.8307459111531574 0.6378376863408292 0.3621623136591708
8
0.19812167744605874 0.8018783225539413 0.07121235906933049 0.9287876409306696 0.9665318535621555 0.0334681464378445 0.3374742321221139 0.6625257678778861
8
1 0 0 1 0 1 1 0
4
1 0 0 1
8
0 1 1 0 1 0 1 0
8
0 1 0 1 1 0 0 1
8
0.6681325679049254 0.33186743209507463 0.9338555456721312 0.06614445432786878 0.8241832852105263 0.17581671478947375 0.6621543841176456 0.33784561588235446
8
0 1 0 1 1 0 0 1
8
1 0 1 0 0 1 0 1
8
0 1 1 0 1 0 1 0
8
0 1 0 1 1 0 0 1
8
0.5765361689139239 0.4234638310860761 0.7110083624634478 0.28899163753655216 0.5618493599814237 0.4381506400185763 0.5432976062981635 0.45670239370183646
8
1 0 0 1 1 0 0 1
8
1 0 1 0 0 1 1 0
8
1 0 1 0 1 0 1 0
4
1 0 1 0
8
1 0 1 0 0 1 1 0
8
0 1 1 0 0 1 1 0
8
1 0 0 1 1 0 1 0
8
1 0 0 1 0 1 0 1
8
1 0 0 1 0 1 1 0
8
1 0 0 1 1 0 0 1
8
0 1 0 1 1 0 1 0
8
0.4081109871566222 0.5918890128433779 0.012189006961133562 0.9878109930388664 0.5489322808637842 0.4510677191362158 0.5232306433775765 0.47676935662242353
8
1 0 0 1 1 0 1 0
8
1 0 0 1 1 0 0 1
8
1 0 1 0 0 1 1 0
4
0 1 0 1
8
0.850039654408722 0.14996034559127816 0.2932384041776439 0.7067615958223561 0.36885605855368864 0.6311439414463114 0.6924501733926364 0.3075498266073636
8
0 1 1 0 1 0 0 1
8
1 0 1 0 0 1 1 0
8
0 1 0 1 1 0 1 0
8
1 0 0 1 0 1 0 1
8
1 0 0 1 0 1 1 0
8
1 0 0 1 1 0 0 1
8
0 1 1 0 0 1 1 0
8
0 1 1 0 0 1 0 1
8
1 0 0 1 0 1 0 1
8
1 0 1 0 1 0 0 1
4
1 0 0 1
8
1 0 1 0 0 1 0 1
8
1 0 1 0 0 1 1 0
8
0 1 1 0 1 0 1 0
8
1 0 0 1 1 0 0 1
8
1 0 0 1 1 0 0 1
8
0 1 0 1 1 0 0 1
8
1 0 1 0 1 0 1 0
8
1 0 1 0 1 0 1 0
8
0 1 0 1 0 1 1 0
8
0 1 1 0 1 0 1 0
8
1 0 0 1 0 1 0 1
4
0 1 1 0
8
0 1 1 0 0 1 1 0
8
0 1 1 0 1 0 0 1
8
1 0 0 1 1 0 1 0
8
0 1 0 1 0 1 0 1
8
0 1 1 0 1 0 0 1
8
0 1 1 0 1 0 0 1
8
0.13996979269705467 0.8600302073029454 0.8247963310686297 0.17520366893137032 0.12965752829059263 0.8703424717094075 0.0855794330150856 0.9144205669849144
8
0 1 0 1 0 1 0 1
8
1 0 0 1 0 1 0 1
8
1 0 1 0 1 0 0 1
8
0 1 1 0 1 0 1 0
4
0.32545742417760426 0.6745425758223957 0.5348600169841657 0.46513998301583415
8
0 1 0 1 1 0 1 0
8
0.5168300390228308 0.4831699609771692 0.4803638089956134 0.5196361910043867 0.5696648741453034 0.4303351258546965 0.9219330405148286 0.07806695948517138
8
1 0 0 1 0 1 1 0
8
1 0 1 0 0 1 1 0
8
0 1 1 0 1 0 1 0
8
1 0 0 1 0 1 1 0
8
0 1 1 0 0 1 1 0
8
1 0 1 0 1 0 1 0
8
0 1 0 1 0 1 0 1
8
1 0 0 1 1 0 0 1
8
1 0 0 1 0 1 1 0
4
1 0 0 1
8
0 1 1 0 0 1 0 1
8
0 1 1 0 0 1 1 0
8
0.6888374830161037 0.3111625169838963 0.7901955072378631 0.2098044927621369 0.3166059538265183 0.6833940461734818 0.5868263282130619 0.413173671786938
8
0 1 0 1 0 1 0 1
8
0 1 0 1 1 0 0 1
8
1 0 1 0 0 1 0 1
8
0 1 1 0 0 1 1 0
8
0 1 0 1 0 1 0 1
8
0 1 1 0 0 1 0 1
8
0 1 1 0 0 1 0 1
8
0 1 0 1 1 0 1 0
4
0 1 0 1
8
0 1 0 1 1 0 1 0
8
0 1 1 0 1 0 1 0
8
0 1 1 0 0 1 1 0
8
1 0 1 0 1 0 0 1
8
0 1 1 0 0 1 0 1
8
0 1 0 1 0 1 0 1
8
1 0 0 1 1 0 1 0
8
1 0 0 1 0 1 0 1
8
1 0 0 1 1 0 0 1
8
1 0 0 1 1 0 1 0
8
0 1 0 1 1 0 1 0
4
0 1 1 0
8
0 1 0 1 0 1 0 1
8
0 1 1 0 0 1 1 0
8
0 1 1 0 1 0 1 0
8
1 0 1 0 1 0 1 0
8
0 1 0 1 0 1 0 1
8
0 1 1 0 1 0 0 1
8
1 0 1 0 1 0 1 0
8
0 1 1 0 1 0 0 1
8
1 0 0 1 1 0 0 1
8
0 1 1 0 1 0 0 1
8
0 1 1 0 1 0 1 0
4
0 1 1 0
4
1 0 0 1
4
1 0 0 1
4
0.7631451145743984 0.23685488542560162 0.5247258133296989 0.4752741866703012
4
1 0 0 1
4
1 0 0 1
4
1 0 1 0
4
0.6267545245917281 0.3732454754082719 0.6251989432943873 0.37480105670561265
4
1 0 1 0
4
0 1 1 0
4
0 1 1 0
4
0 1 0 1
2
0 1
